InboundTrucks  = 8;
OutboundTrucks = 5;
InboundDoors   = 2;
OutboundDoors  = 1;
ReleaseTime    = [2,6,18,12,20,5,19,16];
UnloadTime     = [3,6,5,3,7,1,10,7];
LoadTime       = [3,1,8,7,6];
TransferTime   = [| 5,0,0,0,1 | 2,0,0,0,5 | 5,1,0,0,3 | 0,1,0,2,3 | 0,0,0,5,0 | 0,2,2,0,0 | 0,3,4,0,0 | 0,5,4,0,0 |];
